c File: flat50_3_0.col
c
c SOURCE: Joseph Culberson (joe@cs.ualberta.ca)
c DESCRIPTION: Quasi-random coloring problem
c              generated with flatness = 0
c                             probability = 0.139
c                             known coloring = 3
c                             random seed = 1380
c              Creation Date:  Tue Jun  9 12:07:56 1998
c Maximum degree = 8 Minimum degree = 1
c p edge 50 115
c cnf created by edge2cnf
p cnf 150 545
-1 -2 0
-1 -3 0
-2 -3 0
1 2 3 0
-4 -5 0
-4 -6 0
-5 -6 0
4 5 6 0
-7 -8 0
-7 -9 0
-8 -9 0
7 8 9 0
-10 -11 0
-10 -12 0
-11 -12 0
10 11 12 0
-13 -14 0
-13 -15 0
-14 -15 0
13 14 15 0
-16 -17 0
-16 -18 0
-17 -18 0
16 17 18 0
-19 -20 0
-19 -21 0
-20 -21 0
19 20 21 0
-22 -23 0
-22 -24 0
-23 -24 0
22 23 24 0
-25 -26 0
-25 -27 0
-26 -27 0
25 26 27 0
-28 -29 0
-28 -30 0
-29 -30 0
28 29 30 0
-31 -32 0
-31 -33 0
-32 -33 0
31 32 33 0
-34 -35 0
-34 -36 0
-35 -36 0
34 35 36 0
-37 -38 0
-37 -39 0
-38 -39 0
37 38 39 0
-40 -41 0
-40 -42 0
-41 -42 0
40 41 42 0
-43 -44 0
-43 -45 0
-44 -45 0
43 44 45 0
-46 -47 0
-46 -48 0
-47 -48 0
46 47 48 0
-49 -50 0
-49 -51 0
-50 -51 0
49 50 51 0
-52 -53 0
-52 -54 0
-53 -54 0
52 53 54 0
-55 -56 0
-55 -57 0
-56 -57 0
55 56 57 0
-58 -59 0
-58 -60 0
-59 -60 0
58 59 60 0
-61 -62 0
-61 -63 0
-62 -63 0
61 62 63 0
-64 -65 0
-64 -66 0
-65 -66 0
64 65 66 0
-67 -68 0
-67 -69 0
-68 -69 0
67 68 69 0
-70 -71 0
-70 -72 0
-71 -72 0
70 71 72 0
-73 -74 0
-73 -75 0
-74 -75 0
73 74 75 0
-76 -77 0
-76 -78 0
-77 -78 0
76 77 78 0
-79 -80 0
-79 -81 0
-80 -81 0
79 80 81 0
-82 -83 0
-82 -84 0
-83 -84 0
82 83 84 0
-85 -86 0
-85 -87 0
-86 -87 0
85 86 87 0
-88 -89 0
-88 -90 0
-89 -90 0
88 89 90 0
-91 -92 0
-91 -93 0
-92 -93 0
91 92 93 0
-94 -95 0
-94 -96 0
-95 -96 0
94 95 96 0
-97 -98 0
-97 -99 0
-98 -99 0
97 98 99 0
-100 -101 0
-100 -102 0
-101 -102 0
100 101 102 0
-103 -104 0
-103 -105 0
-104 -105 0
103 104 105 0
-106 -107 0
-106 -108 0
-107 -108 0
106 107 108 0
-109 -110 0
-109 -111 0
-110 -111 0
109 110 111 0
-112 -113 0
-112 -114 0
-113 -114 0
112 113 114 0
-115 -116 0
-115 -117 0
-116 -117 0
115 116 117 0
-118 -119 0
-118 -120 0
-119 -120 0
118 119 120 0
-121 -122 0
-121 -123 0
-122 -123 0
121 122 123 0
-124 -125 0
-124 -126 0
-125 -126 0
124 125 126 0
-127 -128 0
-127 -129 0
-128 -129 0
127 128 129 0
-130 -131 0
-130 -132 0
-131 -132 0
130 131 132 0
-133 -134 0
-133 -135 0
-134 -135 0
133 134 135 0
-136 -137 0
-136 -138 0
-137 -138 0
136 137 138 0
-139 -140 0
-139 -141 0
-140 -141 0
139 140 141 0
-142 -143 0
-142 -144 0
-143 -144 0
142 143 144 0
-145 -146 0
-145 -147 0
-146 -147 0
145 146 147 0
-148 -149 0
-148 -150 0
-149 -150 0
148 149 150 0
-55 -1 0
-56 -2 0
-57 -3 0
-91 -1 0
-92 -2 0
-93 -3 0
-70 -4 0
-71 -5 0
-72 -6 0
-100 -4 0
-101 -5 0
-102 -6 0
-145 -4 0
-146 -5 0
-147 -6 0
-55 -7 0
-56 -8 0
-57 -9 0
-67 -7 0
-68 -8 0
-69 -9 0
-88 -7 0
-89 -8 0
-90 -9 0
-124 -7 0
-125 -8 0
-126 -9 0
-136 -7 0
-137 -8 0
-138 -9 0
-139 -7 0
-140 -8 0
-141 -9 0
-106 -10 0
-107 -11 0
-108 -12 0
-52 -13 0
-53 -14 0
-54 -15 0
-61 -13 0
-62 -14 0
-63 -15 0
-85 -13 0
-86 -14 0
-87 -15 0
-94 -13 0
-95 -14 0
-96 -15 0
-112 -13 0
-113 -14 0
-114 -15 0
-145 -13 0
-146 -14 0
-147 -15 0
-55 -16 0
-56 -17 0
-57 -18 0
-61 -16 0
-62 -17 0
-63 -18 0
-64 -16 0
-65 -17 0
-66 -18 0
-79 -16 0
-80 -17 0
-81 -18 0
-106 -16 0
-107 -17 0
-108 -18 0
-118 -16 0
-119 -17 0
-120 -18 0
-148 -16 0
-149 -17 0
-150 -18 0
-73 -19 0
-74 -20 0
-75 -21 0
-103 -19 0
-104 -20 0
-105 -21 0
-133 -19 0
-134 -20 0
-135 -21 0
-145 -19 0
-146 -20 0
-147 -21 0
-52 -22 0
-53 -23 0
-54 -24 0
-70 -22 0
-71 -23 0
-72 -24 0
-82 -22 0
-83 -23 0
-84 -24 0
-127 -22 0
-128 -23 0
-129 -24 0
-73 -25 0
-74 -26 0
-75 -27 0
-82 -25 0
-83 -26 0
-84 -27 0
-85 -25 0
-86 -26 0
-87 -27 0
-100 -25 0
-101 -26 0
-102 -27 0
-130 -25 0
-131 -26 0
-132 -27 0
-61 -28 0
-62 -29 0
-63 -30 0
-82 -28 0
-83 -29 0
-84 -30 0
-103 -28 0
-104 -29 0
-105 -30 0
-124 -28 0
-125 -29 0
-126 -30 0
-136 -28 0
-137 -29 0
-138 -30 0
-124 -31 0
-125 -32 0
-126 -33 0
-130 -31 0
-131 -32 0
-132 -33 0
-133 -31 0
-134 -32 0
-135 -33 0
-148 -31 0
-149 -32 0
-150 -33 0
-52 -34 0
-53 -35 0
-54 -36 0
-70 -34 0
-71 -35 0
-72 -36 0
-82 -34 0
-83 -35 0
-84 -36 0
-106 -34 0
-107 -35 0
-108 -36 0
-112 -34 0
-113 -35 0
-114 -36 0
-115 -34 0
-116 -35 0
-117 -36 0
-79 -37 0
-80 -38 0
-81 -39 0
-88 -37 0
-89 -38 0
-90 -39 0
-91 -37 0
-92 -38 0
-93 -39 0
-97 -37 0
-98 -38 0
-99 -39 0
-136 -37 0
-137 -38 0
-138 -39 0
-142 -37 0
-143 -38 0
-144 -39 0
-145 -37 0
-146 -38 0
-147 -39 0
-148 -37 0
-149 -38 0
-150 -39 0
-52 -40 0
-53 -41 0
-54 -42 0
-61 -40 0
-62 -41 0
-63 -42 0
-124 -40 0
-125 -41 0
-126 -42 0
-130 -40 0
-131 -41 0
-132 -42 0
-139 -40 0
-140 -41 0
-141 -42 0
-67 -43 0
-68 -44 0
-69 -45 0
-70 -43 0
-71 -44 0
-72 -45 0
-91 -43 0
-92 -44 0
-93 -45 0
-142 -43 0
-143 -44 0
-144 -45 0
-148 -43 0
-149 -44 0
-150 -45 0
-67 -46 0
-68 -47 0
-69 -48 0
-88 -46 0
-89 -47 0
-90 -48 0
-136 -46 0
-137 -47 0
-138 -48 0
-88 -49 0
-89 -50 0
-90 -51 0
-103 -49 0
-104 -50 0
-105 -51 0
-130 -49 0
-131 -50 0
-132 -51 0
-139 -49 0
-140 -50 0
-141 -51 0
-106 -52 0
-107 -53 0
-108 -54 0
-115 -52 0
-116 -53 0
-117 -54 0
-133 -52 0
-134 -53 0
-135 -54 0
-106 -55 0
-107 -56 0
-108 -57 0
-127 -55 0
-128 -56 0
-129 -57 0
-118 -58 0
-119 -59 0
-120 -60 0
-127 -58 0
-128 -59 0
-129 -60 0
-130 -58 0
-131 -59 0
-132 -60 0
-145 -58 0
-146 -59 0
-147 -60 0
-106 -61 0
-107 -62 0
-108 -63 0
-109 -61 0
-110 -62 0
-111 -63 0
-121 -61 0
-122 -62 0
-123 -63 0
-130 -61 0
-131 -62 0
-132 -63 0
-127 -64 0
-128 -65 0
-129 -66 0
-133 -64 0
-134 -65 0
-135 -66 0
-139 -64 0
-140 -65 0
-141 -66 0
-112 -70 0
-113 -71 0
-114 -72 0
-127 -70 0
-128 -71 0
-129 -72 0
-133 -73 0
-134 -74 0
-135 -75 0
-145 -73 0
-146 -74 0
-147 -75 0
-112 -76 0
-113 -77 0
-114 -78 0
-139 -76 0
-140 -77 0
-141 -78 0
-136 -79 0
-137 -80 0
-138 -81 0
-103 -82 0
-104 -83 0
-105 -84 0
-115 -85 0
-116 -86 0
-117 -87 0
-142 -85 0
-143 -86 0
-144 -87 0
-145 -85 0
-146 -86 0
-147 -87 0
-109 -88 0
-110 -89 0
-111 -90 0
-124 -91 0
-125 -92 0
-126 -93 0
-145 -91 0
-146 -92 0
-147 -93 0
-112 -94 0
-113 -95 0
-114 -96 0
-133 -94 0
-134 -95 0
-135 -96 0
-103 -97 0
-104 -98 0
-105 -99 0
-121 -97 0
-122 -98 0
-123 -99 0
-136 -97 0
-137 -98 0
-138 -99 0
-103 -100 0
-104 -101 0
-105 -102 0
-136 -100 0
-137 -101 0
-138 -102 0
